<number of tasks>
89

<cycle time>
92

<task times>
1 28
2 17
3 7
4 10
5 12
6 16
7 13
8 8
9 13
10 24
11 16
12 24
13 12
14 20
15 22
16 22
17 22
18 47
19 6
20 12
21 6
22 22
23 7
24 14
25 68
26 15
27 8
28 74
29 32
30 11
31 18
32 15
33 42
34 27
35 38
36 38
37 26
38 35
39 31
40 8
41 14
42 8
43 8
44 8
45 17
46 7
47 19
48 12
49 24
50 26
51 22
52 14
53 27
54 60
55 4
56 2
57 1
58 9
59 5
60 6
61 7
62 12
63 2
64 11
65 14
66 6
67 21
68 14
69 1
70 6
71 21
72 11
73 14
74 28
75 12
76 11
77 30
78 22
79 14
80 31
81 18
82 16
83 7
84 38
85 8
86 31
87 29
88 12
89 18

<precedence relations>
1,2
2,3
3,4
4,5
4,6
4,7
4,8
4,9
5,10
6,11
7,12
8,18
9,18
10,14
11,12
12,13
13,14
14,15
14,16
15,17
16,54
17,18
18,19
18,20
19,22
20,21
20,28
21,54
22,23
23,24
24,25
25,26
25,27
25,29
26,37
27,33
28,29
29,31
30,54
31,32
32,33
33,34
34,35
35,36
35,37
36,38
37,38
38,39
39,40
39,41
39,42
39,43
40,44
41,53
42,53
43,45
44,52
45,46
46,47
47,48
47,49
49,50
50,51
51,52
52,53
53,68
53,69
53,70
53,71
54,55
55,56
56,57
57,58
57,59
57,60
57,61
57,62
57,63
57,64
57,65
57,66
58,67
59,67
60,67
61,67
62,67
63,67
64,67
65,67
66,67
67,73
68,72
69,72
70,72
71,73
72,78
72,80
73,74
74,75
74,76
75,77
76,81
77,78
78,79
79,81
80,81
81,82
81,84
81,85
82,83
83,86
84,86
85,86
86,87
87,88
87,89

<setup times forward>
4,5:3
4,8:2
4,9:2
5,6:3
5,7:3
5,8:5
5,9:5
5,30:3
6,5:3
6,8:2
6,9:2
6,10:3
6,11:3
7,5:3
7,8:2
7,9:2
7,10:3
7,11:3
7,12:3
8,5:5
8,6:2
8,7:2
8,10:5
8,11:5
8,12:5
8,13:5
8,16:1
8,18:3
8,30:2
9,5:5
9,6:2
9,7:2
9,10:5
9,11:5
9,12:5
9,13:5
9,16:1
9,18:3
9,30:2
10,6:3
10,7:3
10,8:5
10,9:5
10,14:5
10,30:3
11,7:3
11,8:5
11,9:5
11,30:3
12,8:5
12,9:5
12,30:3
13,8:5
13,9:5
13,14:5
13,30:3
14,16:1
14,30:2
15,16:1
15,30:2
16,8:1
16,9:1
16,15:1
16,17:1
16,18:4
16,19:4
16,20:4
16,21:1
16,22:4
16,23:4
16,24:4
16,25:4
16,26:3
16,27:1
16,28:1
16,29:3
16,30:3
16,31:3
16,32:3
16,35:5
16,36:5
16,37:1
16,38:1
16,39:1
16,40:2
16,41:4
16,42:5
16,43:1
16,44:2
16,45:1
16,46:1
16,47:2
16,48:4
16,49:2
16,50:2
16,51:4
16,52:4
16,53:2
16,54:1
16,68:2
16,69:1
16,70:1
16,71:2
16,72:1
16,80:1
17,16:1
17,18:3
17,30:2
18,16:4
18,30:1
19,16:4
19,21:3
19,28:3
19,30:1
19,54:5
19,55:2
19,56:2
19,57:2
19,58:6
19,59:1
19,60:1
19,61:1
19,64:1
19,66:1
19,67:6
20,16:4
20,21:3
20,26:1
20,27:3
20,28:3
20,30:1
21,16:1
21,19:3
21,22:3
21,23:3
21,24:3
21,25:3
21,26:2
21,29:2
21,30:2
21,31:2
21,32:2
21,33:1
21,34:1
21,35:4
21,36:4
21,40:1
21,41:3
21,42:4
21,43:2
21,44:1
21,45:2
21,46:2
21,47:1
21,48:3
21,49:1
21,50:1
21,51:3
21,52:3
21,53:3
21,54:2
21,68:3
21,69:2
21,70:2
21,71:3
21,72:2
21,80:2
22,16:4
22,21:3
22,28:3
22,30:1
22,54:5
22,55:2
22,56:2
22,57:2
22,58:6
22,59:1
22,60:1
22,61:1
22,64:1
22,66:1
22,67:6
23,16:4
23,21:3
23,28:3
23,30:1
23,54:5
23,55:2
23,56:2
23,57:2
23,58:6
23,59:1
23,60:1
23,61:1
23,64:1
23,66:1
23,67:6
24,16:4
24,21:3
24,28:3
24,30:1
24,54:5
24,55:2
24,56:2
24,57:2
24,58:6
24,59:1
24,60:1
24,61:1
24,64:1
24,66:1
24,67:6
25,16:4
25,21:3
25,26:1
25,27:3
25,28:3
25,29:1
25,30:1
25,54:5
25,55:2
25,56:2
25,57:2
25,58:6
25,59:1
25,60:1
25,61:1
25,64:1
25,66:1
25,67:6
26,16:3
26,20:1
26,21:2
26,27:2
26,28:2
26,33:3
26,34:3
26,35:2
26,36:2
26,37:2
26,54:4
26,55:1
26,56:1
26,57:1
26,58:5
26,59:2
26,60:2
26,61:2
26,62:1
26,63:1
26,64:2
26,65:1
26,66:2
26,67:5
27,16:1
27,20:3
27,26:2
27,29:2
27,30:2
27,31:2
27,32:2
27,33:1
27,54:2
27,55:1
27,56:1
27,57:1
27,58:3
27,59:4
27,60:4
27,61:4
27,62:3
27,63:3
27,64:4
27,65:3
27,66:4
27,67:3
28,16:1
28,19:3
28,22:3
28,23:3
28,24:3
28,25:3
28,26:2
28,29:2
28,30:2
28,54:2
28,55:1
28,56:1
28,57:1
28,58:3
28,59:4
28,60:4
28,61:4
28,62:3
28,63:3
28,64:4
28,65:3
28,66:4
28,67:3
29,16:3
29,21:2
29,27:2
29,54:4
29,55:1
29,56:1
29,57:1
29,58:5
29,59:2
29,60:2
29,61:2
29,62:1
29,63:1
29,64:2
29,65:1
29,66:2
29,67:5
30,5:3
30,8:2
30,9:2
30,10:3
30,11:3
30,12:3
30,13:3
30,14:2
30,15:2
30,16:3
30,17:2
30,18:1
30,19:1
30,20:1
30,21:2
30,22:1
30,23:1
30,24:1
30,25:1
30,27:2
30,28:2
30,33:3
30,34:3
30,35:2
30,36:2
30,37:2
30,38:2
30,39:2
30,40:1
30,41:1
30,42:2
30,43:4
30,44:1
30,45:4
30,46:4
30,47:1
30,48:1
30,49:1
30,50:1
30,51:1
30,52:1
30,53:5
30,54:4
30,68:5
30,69:4
30,70:4
30,71:5
30,72:4
30,80:4
31,16:3
31,21:2
31,27:2
31,54:4
31,55:1
31,56:1
31,57:1
31,58:5
31,59:2
31,60:2
31,61:2
31,62:1
31,63:1
31,64:2
31,65:1
31,66:2
31,67:5
32,16:3
32,21:2
32,27:2
32,33:3
32,54:4
32,55:1
32,56:1
32,57:1
32,58:5
32,59:2
32,60:2
32,61:2
32,62:1
32,63:1
32,64:2
32,65:1
32,66:2
32,67:5
33,21:1
33,26:3
33,30:3
33,54:1
33,55:2
33,56:2
33,57:2
33,58:2
33,59:5
33,60:5
33,61:5
33,62:4
33,63:4
33,64:5
33,65:4
33,66:5
33,67:2
34,21:1
34,26:3
34,30:3
34,35:5
34,54:1
34,55:2
34,56:2
34,57:2
34,58:2
34,59:5
34,60:5
34,61:5
34,62:4
34,63:4
34,64:5
34,65:4
34,66:5
34,67:2
35,16:5
35,21:4
35,26:2
35,30:2
35,37:4
35,54:6
35,55:3
35,56:3
35,57:3
35,58:7
35,62:1
35,63:1
35,65:1
35,67:7
36,16:5
36,21:4
36,26:2
36,30:2
36,37:4
36,38:4
36,54:6
36,55:3
36,56:3
36,57:3
36,58:7
36,62:1
36,63:1
36,65:1
36,67:7
37,16:1
37,30:2
37,36:4
37,54:2
37,55:1
37,56:1
37,57:1
37,58:3
37,59:4
37,60:4
37,61:4
37,62:3
37,63:3
37,64:4
37,65:3
37,66:4
37,67:3
38,16:1
38,30:2
38,54:2
38,55:1
38,56:1
38,57:1
38,58:3
38,59:4
38,60:4
38,61:4
38,62:3
38,63:3
38,64:4
38,65:3
38,66:4
38,67:3
39,16:1
39,30:2
39,40:1
39,41:3
39,42:4
39,43:2
39,54:2
39,55:1
39,56:1
39,57:1
39,58:3
39,59:4
39,60:4
39,61:4
39,62:3
39,63:3
39,64:4
39,65:3
39,66:4
39,67:3
40,16:2
40,21:1
40,30:1
40,41:2
40,42:3
40,43:3
40,45:3
40,46:3
40,48:2
40,51:2
40,54:3
40,58:4
40,59:3
40,60:3
40,61:3
40,62:2
40,63:2
40,64:3
40,65:2
40,66:3
40,67:4
41,16:4
41,21:3
41,30:1
41,40:2
41,42:1
41,43:5
41,44:2
41,45:5
41,46:5
41,47:2
41,49:2
41,50:2
41,53:6
41,54:5
41,55:2
41,56:2
41,57:2
41,58:6
41,59:1
41,60:1
41,61:1
41,64:1
41,66:1
41,67:6
42,16:5
42,21:4
42,30:2
42,40:3
42,41:1
42,43:6
42,44:3
42,45:6
42,46:6
42,47:3
42,48:1
42,49:3
42,50:3
42,51:1
42,52:1
42,53:7
42,54:6
42,55:3
42,56:3
42,57:3
42,58:7
42,62:1
42,63:1
42,65:1
42,67:7
43,16:1
43,21:2
43,30:4
43,40:3
43,41:5
43,42:6
43,44:3
43,55:3
43,56:3
43,57:3
43,58:1
43,59:6
43,60:6
43,61:6
43,62:5
43,63:5
43,64:6
43,65:5
43,66:6
43,67:1
44,16:2
44,21:1
44,30:1
44,41:2
44,42:3
44,43:3
44,45:3
44,46:3
44,48:2
44,51:2
44,52:2
44,54:3
44,58:4
44,59:3
44,60:3
44,61:3
44,62:2
44,63:2
44,64:3
44,65:2
44,66:3
44,67:4
45,16:1
45,21:2
45,30:4
45,40:3
45,41:5
45,42:6
45,44:3
45,55:3
45,56:3
45,57:3
45,58:1
45,59:6
45,60:6
45,61:6
45,62:5
45,63:5
45,64:6
45,65:5
45,66:6
45,67:1
46,16:1
46,21:2
46,30:4
46,40:3
46,41:5
46,42:6
46,44:3
46,47:3
46,55:3
46,56:3
46,57:3
46,58:1
46,59:6
46,60:6
46,61:6
46,62:5
46,63:5
46,64:6
46,65:5
46,66:6
46,67:1
47,16:2
47,21:1
47,30:1
47,41:2
47,42:3
47,48:2
47,54:3
47,58:4
47,59:3
47,60:3
47,61:3
47,62:2
47,63:2
47,64:3
47,65:2
47,66:3
47,67:4
48,16:4
48,21:3
48,30:1
48,40:2
48,42:1
48,44:2
48,49:2
48,50:2
48,53:6
48,54:5
48,55:2
48,56:2
48,57:2
48,58:6
48,59:1
48,60:1
48,61:1
48,64:1
48,66:1
48,67:6
48,68:6
48,69:5
48,70:5
48,71:6
48,72:5
48,73:5
48,74:5
48,75:2
48,76:2
48,77:2
48,78:2
48,79:2
48,80:5
48,81:2
48,82:2
48,83:2
48,84:2
48,85:2
49,16:2
49,21:1
49,30:1
49,41:2
49,42:3
49,48:2
49,54:3
49,58:4
49,59:3
49,60:3
49,61:3
49,62:2
49,63:2
49,64:3
49,65:2
49,66:3
49,67:4
50,16:2
50,21:1
50,30:1
50,41:2
50,42:3
50,48:2
50,51:2
50,54:3
50,58:4
50,59:3
50,60:3
50,61:3
50,62:2
50,63:2
50,64:3
50,65:2
50,66:3
50,67:4
51,16:4
51,21:3
51,30:1
51,40:2
51,42:1
51,44:2
51,54:5
51,55:2
51,56:2
51,57:2
51,58:6
51,59:1
51,60:1
51,61:1
51,64:1
51,66:1
51,67:6
52,16:4
52,21:3
52,30:1
52,42:1
52,53:6
52,54:5
52,55:2
52,56:2
52,57:2
52,58:6
52,59:1
52,60:1
52,61:1
52,64:1
52,66:1
52,67:6
53,16:2
53,21:3
53,30:5
53,48:6
53,54:1
53,55:4
53,56:4
53,57:4
53,59:7
53,60:7
53,61:7
53,62:6
53,63:6
53,64:7
53,65:6
53,66:7
53,69:1
53,70:1
54,19:5
54,22:5
54,23:5
54,24:5
54,25:5
54,26:4
54,27:2
54,28:2
54,29:4
54,31:4
54,32:4
54,33:1
54,34:1
54,35:6
54,36:6
54,37:2
54,38:2
54,39:2
54,40:3
54,41:5
54,42:6
54,44:3
54,47:3
54,48:5
54,49:3
54,50:3
54,51:5
54,52:5
54,53:1
54,55:3
54,68:1
54,71:1
55,19:2
55,22:2
55,23:2
55,24:2
55,25:2
55,26:1
55,27:1
55,28:1
55,29:1
55,31:1
55,32:1
55,33:2
55,34:2
55,35:3
55,36:3
55,37:1
55,38:1
55,39:1
55,41:2
55,42:3
55,43:3
55,45:3
55,46:3
55,48:2
55,51:2
55,52:2
55,53:4
55,68:4
55,69:3
55,70:3
55,71:4
55,72:3
55,80:3
56,19:2
56,22:2
56,23:2
56,24:2
56,25:2
56,26:1
56,27:1
56,28:1
56,29:1
56,31:1
56,32:1
56,33:2
56,34:2
56,35:3
56,36:3
56,37:1
56,38:1
56,39:1
56,41:2
56,42:3
56,43:3
56,45:3
56,46:3
56,48:2
56,51:2
56,52:2
56,53:4
56,68:4
56,69:3
56,70:3
56,71:4
56,72:3
56,80:3
57,19:2
57,22:2
57,23:2
57,24:2
57,25:2
57,26:1
57,27:1
57,28:1
57,29:1
57,31:1
57,32:1
57,33:2
57,34:2
57,35:3
57,36:3
57,37:1
57,38:1
57,39:1
57,41:2
57,42:3
57,43:3
57,45:3
57,46:3
57,48:2
57,51:2
57,52:2
57,53:4
57,58:4
57,59:3
57,60:3
57,61:3
57,62:2
57,63:2
57,64:3
57,65:2
57,66:3
57,68:4
57,69:3
57,70:3
57,71:4
57,72:3
57,80:3
58,19:6
58,22:6
58,23:6
58,24:6
58,25:6
58,26:5
58,27:3
58,28:3
58,29:5
58,31:5
58,32:5
58,33:2
58,34:2
58,35:7
58,36:7
58,37:3
58,38:3
58,39:3
58,40:4
58,41:6
58,42:7
58,43:1
58,44:4
58,45:1
58,46:1
58,47:4
58,48:6
58,49:4
58,50:4
58,51:6
58,52:6
58,59:7
58,60:7
58,61:7
58,62:6
58,63:6
58,64:7
58,65:6
58,66:7
58,69:1
58,70:1
58,72:1
58,80:1
59,19:1
59,22:1
59,23:1
59,24:1
59,25:1
59,26:2
59,27:4
59,28:4
59,29:2
59,31:2
59,32:2
59,33:5
59,34:5
59,37:4
59,38:4
59,39:4
59,40:3
59,41:1
59,43:6
59,44:3
59,45:6
59,46:6
59,47:3
59,48:1
59,49:3
59,50:3
59,51:1
59,52:1
59,53:7
59,58:7
59,62:1
59,63:1
59,65:1
59,67:7
59,68:7
59,69:6
59,70:6
59,71:7
59,72:6
59,80:6
60,19:1
60,22:1
60,23:1
60,24:1
60,25:1
60,26:2
60,27:4
60,28:4
60,29:2
60,31:2
60,32:2
60,33:5
60,34:5
60,37:4
60,38:4
60,39:4
60,40:3
60,41:1
60,43:6
60,44:3
60,45:6
60,46:6
60,47:3
60,48:1
60,49:3
60,50:3
60,51:1
60,52:1
60,53:7
60,58:7
60,62:1
60,63:1
60,65:1
60,67:7
60,68:7
60,69:6
60,70:6
60,71:7
60,72:6
60,80:6
61,19:1
61,22:1
61,23:1
61,24:1
61,25:1
61,26:2
61,27:4
61,28:4
61,29:2
61,31:2
61,32:2
61,33:5
61,34:5
61,37:4
61,38:4
61,39:4
61,40:3
61,41:1
61,43:6
61,44:3
61,45:6
61,46:6
61,47:3
61,48:1
61,49:3
61,50:3
61,51:1
61,52:1
61,53:7
61,58:7
61,62:1
61,63:1
61,65:1
61,67:7
61,68:7
61,69:6
61,70:6
61,71:7
61,72:6
61,80:6
62,26:1
62,27:3
62,28:3
62,29:1
62,31:1
62,32:1
62,33:4
62,34:4
62,35:1
62,36:1
62,37:3
62,38:3
62,39:3
62,40:2
62,42:1
62,43:5
62,44:2
62,45:5
62,46:5
62,47:2
62,49:2
62,50:2
62,53:6
62,58:6
62,59:1
62,60:1
62,61:1
62,64:1
62,66:1
62,67:6
62,68:6
62,69:5
62,70:5
62,71:6
62,72:5
62,80:5
63,26:1
63,27:3
63,28:3
63,29:1
63,31:1
63,32:1
63,33:4
63,34:4
63,35:1
63,36:1
63,37:3
63,38:3
63,39:3
63,40:2
63,42:1
63,43:5
63,44:2
63,45:5
63,46:5
63,47:2
63,49:2
63,50:2
63,53:6
63,58:6
63,59:1
63,60:1
63,61:1
63,64:1
63,66:1
63,67:6
63,68:6
63,69:5
63,70:5
63,71:6
63,72:5
63,80:5
64,19:1
64,22:1
64,23:1
64,24:1
64,25:1
64,26:2
64,27:4
64,28:4
64,29:2
64,31:2
64,32:2
64,33:5
64,34:5
64,37:4
64,38:4
64,39:4
64,40:3
64,41:1
64,43:6
64,44:3
64,45:6
64,46:6
64,47:3
64,48:1
64,49:3
64,50:3
64,51:1
64,52:1
64,53:7
64,58:7
64,62:1
64,63:1
64,65:1
64,67:7
64,68:7
64,69:6
64,70:6
64,71:7
64,72:6
64,80:6
65,26:1
65,27:3
65,28:3
65,29:1
65,31:1
65,32:1
65,33:4
65,34:4
65,35:1
65,36:1
65,37:3
65,38:3
65,39:3
65,40:2
65,42:1
65,43:5
65,44:2
65,45:5
65,46:5
65,47:2
65,49:2
65,50:2
65,53:6
65,58:6
65,59:1
65,60:1
65,61:1
65,64:1
65,66:1
65,67:6
65,68:6
65,69:5
65,70:5
65,71:6
65,72:5
65,80:5
66,19:1
66,22:1
66,23:1
66,24:1
66,25:1
66,26:2
66,27:4
66,28:4
66,29:2
66,31:2
66,32:2
66,33:5
66,34:5
66,37:4
66,38:4
66,39:4
66,40:3
66,41:1
66,43:6
66,44:3
66,45:6
66,46:6
66,47:3
66,48:1
66,49:3
66,50:3
66,51:1
66,52:1
66,53:7
66,58:7
66,62:1
66,63:1
66,65:1
66,67:7
66,68:7
66,69:6
66,70:6
66,71:7
66,72:6
66,80:6
67,19:6
67,22:6
67,23:6
67,24:6
67,25:6
67,26:5
67,27:3
67,28:3
67,29:5
67,31:5
67,32:5
67,33:2
67,34:2
67,35:7
67,36:7
67,37:3
67,38:3
67,39:3
67,40:4
67,41:6
67,42:7
67,43:1
67,44:4
67,45:1
67,46:1
67,47:4
67,48:6
67,49:4
67,50:4
67,51:6
67,52:6
67,69:1
67,70:1
67,72:1
67,73:1
67,80:1
68,16:2
68,21:3
68,30:5
68,48:6
68,54:1
68,55:4
68,56:4
68,57:4
68,59:7
68,60:7
68,61:7
68,62:6
68,63:6
68,64:7
68,65:6
68,66:7
68,69:1
68,70:1
68,72:1
68,73:1
68,74:1
68,75:8
68,76:8
68,77:8
69,16:1
69,21:2
69,30:4
69,48:5
69,55:3
69,56:3
69,57:3
69,58:1
69,59:6
69,60:6
69,61:6
69,62:5
69,63:5
69,64:6
69,65:5
69,66:6
69,67:1
69,68:1
69,71:1
69,75:7
69,76:7
69,77:7
70,16:1
70,21:2
70,30:4
70,48:5
70,55:3
70,56:3
70,57:3
70,58:1
70,59:6
70,60:6
70,61:6
70,62:5
70,63:5
70,64:6
70,65:5
70,66:6
70,67:1
70,68:1
70,71:1
70,75:7
70,76:7
70,77:7
71,16:2
71,21:3
71,30:5
71,48:6
71,54:1
71,55:4
71,56:4
71,57:4
71,59:7
71,60:7
71,61:7
71,62:6
71,63:6
71,64:7
71,65:6
71,66:7
71,69:1
71,70:1
71,72:1
71,73:1
71,80:1
72,16:1
72,21:2
72,30:4
72,48:5
72,55:3
72,56:3
72,57:3
72,58:1
72,59:6
72,60:6
72,61:6
72,62:5
72,63:5
72,64:6
72,65:5
72,66:6
72,67:1
72,71:1
72,75:7
72,76:7
72,77:7
72,78:7
73,48:5
73,68:1
74,48:5
74,68:1
74,75:7
74,76:7
75,48:2
75,68:8
75,69:7
75,70:7
75,72:7
75,80:7
76,48:2
76,68:8
76,69:7
76,70:7
76,72:7
76,80:7
76,81:4
77,48:2
77,68:8
77,69:7
77,70:7
77,72:7
77,80:7
78,48:2
78,80:7
79,48:2
79,80:7
79,81:4
80,16:1
80,21:2
80,30:4
80,48:5
80,55:3
80,56:3
80,57:3
80,58:1
80,59:6
80,60:6
80,61:6
80,62:5
80,63:5
80,64:6
80,65:5
80,66:6
80,67:1
80,71:1
80,75:7
80,76:7
80,77:7
80,78:7
80,79:7
80,81:3
81,48:2
82,48:2
83,48:2
83,86:2
84,48:2
84,86:2
85,48:2
85,86:2

<setup times backward>
5,1:3
5,2:3
5,3:3
5,4:3
5,6:3
5,7:3
5,8:5
5,9:5
5,30:3
6,8:2
6,9:2
7,8:2
7,9:2
8,16:1
9,16:1
10,1:3
10,2:3
10,3:3
10,4:3
10,6:3
10,7:3
10,8:5
10,9:5
10,30:3
11,1:3
11,2:3
11,3:3
11,4:3
11,6:3
11,7:3
11,8:5
11,9:5
11,30:3
12,1:3
12,2:3
12,3:3
12,4:3
12,6:3
12,7:3
12,8:5
12,9:5
12,30:3
13,1:3
13,2:3
13,3:3
13,4:3
13,6:3
13,7:3
13,8:5
13,9:5
13,30:3
15,16:1
16,43:1
16,45:1
16,46:1
16,53:2
16,68:2
16,69:1
16,70:1
16,71:2
16,72:1
16,80:1
17,16:1
18,1:1
18,2:1
18,3:1
18,4:1
18,6:1
18,7:1
18,8:3
18,9:3
18,14:3
18,15:3
18,16:4
18,17:3
18,30:1
19,1:1
19,2:1
19,3:1
19,4:1
19,6:1
19,7:1
19,8:3
19,9:3
19,14:3
19,15:3
19,16:4
19,17:3
19,21:3
19,28:3
19,30:1
19,54:5
19,55:2
19,56:2
19,57:2
19,58:6
19,67:6
20,1:1
20,2:1
20,3:1
20,4:1
20,6:1
20,7:1
20,8:3
20,9:3
20,14:3
20,15:3
20,16:4
20,17:3
20,26:1
20,27:3
20,30:1
21,16:1
21,33:1
21,34:1
21,43:2
21,45:2
21,46:2
21,53:3
21,68:3
21,69:2
21,70:2
21,71:3
21,72:2
21,80:2
22,1:1
22,2:1
22,3:1
22,4:1
22,6:1
22,7:1
22,8:3
22,9:3
22,14:3
22,15:3
22,16:4
22,17:3
22,21:3
22,28:3
22,30:1
22,54:5
22,55:2
22,56:2
22,57:2
22,58:6
22,67:6
23,1:1
23,2:1
23,3:1
23,4:1
23,6:1
23,7:1
23,8:3
23,9:3
23,14:3
23,15:3
23,16:4
23,17:3
23,21:3
23,28:3
23,30:1
23,54:5
23,55:2
23,56:2
23,57:2
23,58:6
23,67:6
24,1:1
24,2:1
24,3:1
24,4:1
24,6:1
24,7:1
24,8:3
24,9:3
24,14:3
24,15:3
24,16:4
24,17:3
24,21:3
24,28:3
24,30:1
24,54:5
24,55:2
24,56:2
24,57:2
24,58:6
24,67:6
25,1:1
25,2:1
25,3:1
25,4:1
25,6:1
25,7:1
25,8:3
25,9:3
25,14:3
25,15:3
25,16:4
25,17:3
25,21:3
25,28:3
25,30:1
25,54:5
25,55:2
25,56:2
25,57:2
25,58:6
25,67:6
26,8:2
26,9:2
26,14:2
26,15:2
26,16:3
26,17:2
26,21:2
26,27:2
26,28:2
26,33:3
26,34:3
26,54:4
26,55:1
26,56:1
26,57:1
26,58:5
26,67:5
27,16:1
27,54:2
27,58:3
27,67:3
28,16:1
28,54:2
28,58:3
28,67:3
29,8:2
29,9:2
29,14:2
29,15:2
29,16:3
29,17:2
29,21:2
29,27:2
29,28:2
29,54:4
29,55:1
29,56:1
29,57:1
29,58:5
29,67:5
30,8:2
30,9:2
30,14:2
30,15:2
30,16:3
30,17:2
30,21:2
30,27:2
30,28:2
30,33:3
30,34:3
30,37:2
30,38:2
30,39:2
30,40:1
30,43:4
30,44:1
30,45:4
30,46:4
30,47:1
30,49:1
30,50:1
30,53:5
30,68:5
30,69:4
30,70:4
30,71:5
30,72:4
30,80:4
31,8:2
31,9:2
31,14:2
31,15:2
31,16:3
31,17:2
31,21:2
31,27:2
31,28:2
31,54:4
31,55:1
31,56:1
31,57:1
31,58:5
31,67:5
32,8:2
32,9:2
32,14:2
32,15:2
32,16:3
32,17:2
32,21:2
32,27:2
32,28:2
32,54:4
32,55:1
32,56:1
32,57:1
32,58:5
32,67:5
33,54:1
33,58:2
33,67:2
34,54:1
34,58:2
34,67:2
35,1:2
35,2:2
35,3:2
35,4:2
35,6:2
35,7:2
35,8:4
35,9:4
35,14:4
35,15:4
35,16:5
35,17:4
35,18:1
35,19:1
35,20:1
35,21:4
35,22:1
35,23:1
35,24:1
35,25:1
35,26:2
35,27:4
35,28:4
35,29:2
35,30:2
35,31:2
35,32:2
35,33:5
35,34:5
35,54:6
35,55:3
35,56:3
35,57:3
35,58:7
35,62:1
35,63:1
35,65:1
35,67:7
36,1:2
36,2:2
36,3:2
36,4:2
36,6:2
36,7:2
36,8:4
36,9:4
36,14:4
36,15:4
36,16:5
36,17:4
36,18:1
36,19:1
36,20:1
36,21:4
36,22:1
36,23:1
36,24:1
36,25:1
36,26:2
36,27:4
36,28:4
36,29:2
36,30:2
36,31:2
36,32:2
36,33:5
36,34:5
36,37:4
36,54:6
36,55:3
36,56:3
36,57:3
36,58:7
36,62:1
36,63:1
36,65:1
36,67:7
37,16:1
37,33:1
37,34:1
37,54:2
37,58:3
37,67:3
38,16:1
38,33:1
38,34:1
38,54:2
38,58:3
38,67:3
39,16:1
39,33:1
39,34:1
39,54:2
39,58:3
39,67:3
40,8:1
40,9:1
40,14:1
40,15:1
40,16:2
40,17:1
40,21:1
40,27:1
40,28:1
40,33:2
40,34:2
40,37:1
40,38:1
40,39:1
40,43:3
40,45:3
40,46:3
40,54:3
40,58:4
40,67:4
41,1:1
41,2:1
41,3:1
41,4:1
41,6:1
41,7:1
41,8:3
41,9:3
41,14:3
41,15:3
41,16:4
41,17:3
41,21:3
41,26:1
41,27:3
41,28:3
41,29:1
41,30:1
41,31:1
41,32:1
41,33:4
41,34:4
41,37:3
41,38:3
41,39:3
41,40:2
41,43:5
41,44:2
41,45:5
41,46:5
41,47:2
41,49:2
41,50:2
41,54:5
41,55:2
41,56:2
41,57:2
41,58:6
41,67:6
42,1:2
42,2:2
42,3:2
42,4:2
42,6:2
42,7:2
42,8:4
42,9:4
42,14:4
42,15:4
42,16:5
42,17:4
42,18:1
42,19:1
42,20:1
42,21:4
42,22:1
42,23:1
42,24:1
42,25:1
42,26:2
42,27:4
42,28:4
42,29:2
42,30:2
42,31:2
42,32:2
42,33:5
42,34:5
42,37:4
42,38:4
42,39:4
42,40:3
42,41:1
42,43:6
42,44:3
42,45:6
42,46:6
42,47:3
42,48:1
42,49:3
42,50:3
42,51:1
42,52:1
42,54:6
42,55:3
42,56:3
42,57:3
42,58:7
42,62:1
42,63:1
42,65:1
42,67:7
43,58:1
43,67:1
44,8:1
44,9:1
44,14:1
44,15:1
44,16:2
44,17:1
44,21:1
44,27:1
44,28:1
44,33:2
44,34:2
44,37:1
44,38:1
44,39:1
44,43:3
44,45:3
44,46:3
44,54:3
44,58:4
44,67:4
45,58:1
45,67:1
46,58:1
46,67:1
47,8:1
47,9:1
47,14:1
47,15:1
47,16:2
47,17:1
47,21:1
47,27:1
47,28:1
47,33:2
47,34:2
47,37:1
47,38:1
47,39:1
47,43:3
47,45:3
47,46:3
47,54:3
47,58:4
47,67:4
48,1:1
48,2:1
48,3:1
48,4:1
48,6:1
48,7:1
48,8:3
48,9:3
48,14:3
48,15:3
48,16:4
48,17:3
48,21:3
48,26:1
48,27:3
48,28:3
48,29:1
48,30:1
48,31:1
48,32:1
48,33:4
48,34:4
48,37:3
48,38:3
48,39:3
48,40:2
48,43:5
48,44:2
48,45:5
48,46:5
48,47:2
48,49:2
48,50:2
48,53:6
48,54:5
48,55:2
48,56:2
48,57:2
48,58:6
48,67:6
48,68:6
48,69:5
48,70:5
48,71:6
48,72:5
48,73:5
48,74:5
48,80:5
48,81:2
48,82:2
48,83:2
48,84:2
48,85:2
49,8:1
49,9:1
49,14:1
49,15:1
49,16:2
49,17:1
49,21:1
49,27:1
49,28:1
49,33:2
49,34:2
49,37:1
49,38:1
49,39:1
49,43:3
49,45:3
49,46:3
49,54:3
49,58:4
49,67:4
50,8:1
50,9:1
50,14:1
50,15:1
50,16:2
50,17:1
50,21:1
50,27:1
50,28:1
50,33:2
50,34:2
50,37:1
50,38:1
50,39:1
50,43:3
50,45:3
50,46:3
50,54:3
50,58:4
50,67:4
51,1:1
51,2:1
51,3:1
51,4:1
51,6:1
51,7:1
51,8:3
51,9:3
51,14:3
51,15:3
51,16:4
51,17:3
51,21:3
51,26:1
51,27:3
51,28:3
51,29:1
51,30:1
51,31:1
51,32:1
51,33:4
51,34:4
51,37:3
51,38:3
51,39:3
51,40:2
51,43:5
51,44:2
51,45:5
51,46:5
51,47:2
51,49:2
51,50:2
51,54:5
51,55:2
51,56:2
51,57:2
51,58:6
51,67:6
52,1:1
52,2:1
52,3:1
52,4:1
52,6:1
52,7:1
52,8:3
52,9:3
52,14:3
52,15:3
52,16:4
52,17:3
52,21:3
52,26:1
52,27:3
52,28:3
52,29:1
52,30:1
52,31:1
52,32:1
52,33:4
52,34:4
52,37:3
52,38:3
52,39:3
52,40:2
52,43:5
52,44:2
52,45:5
52,46:5
52,47:2
52,49:2
52,50:2
52,54:5
52,55:2
52,56:2
52,57:2
52,58:6
52,67:6
54,53:1
54,68:1
54,71:1
55,8:1
55,9:1
55,14:1
55,15:1
55,16:2
55,17:1
55,21:1
55,27:1
55,28:1
55,33:2
55,34:2
55,37:1
55,38:1
55,39:1
55,43:3
55,45:3
55,46:3
55,53:4
55,54:3
55,68:4
55,69:3
55,70:3
55,71:4
55,72:3
55,80:3
56,8:1
56,9:1
56,14:1
56,15:1
56,16:2
56,17:1
56,21:1
56,27:1
56,28:1
56,33:2
56,34:2
56,37:1
56,38:1
56,39:1
56,43:3
56,45:3
56,46:3
56,53:4
56,54:3
56,68:4
56,69:3
56,70:3
56,71:4
56,72:3
56,80:3
57,8:1
57,9:1
57,14:1
57,15:1
57,16:2
57,17:1
57,21:1
57,27:1
57,28:1
57,33:2
57,34:2
57,37:1
57,38:1
57,39:1
57,43:3
57,45:3
57,46:3
57,53:4
57,54:3
57,68:4
57,69:3
57,70:3
57,71:4
57,72:3
57,80:3
59,1:2
59,2:2
59,3:2
59,4:2
59,6:2
59,7:2
59,8:4
59,9:4
59,14:4
59,15:4
59,16:5
59,17:4
59,18:1
59,19:1
59,20:1
59,21:4
59,22:1
59,23:1
59,24:1
59,25:1
59,26:2
59,27:4
59,28:4
59,29:2
59,30:2
59,31:2
59,32:2
59,33:5
59,34:5
59,37:4
59,38:4
59,39:4
59,40:3
59,41:1
59,43:6
59,44:3
59,45:6
59,46:6
59,47:3
59,48:1
59,49:3
59,50:3
59,51:1
59,52:1
59,53:7
59,54:6
59,55:3
59,56:3
59,57:3
59,58:7
59,62:1
59,63:1
59,65:1
59,68:7
59,69:6
59,70:6
59,71:7
59,72:6
59,80:6
60,1:2
60,2:2
60,3:2
60,4:2
60,6:2
60,7:2
60,8:4
60,9:4
60,14:4
60,15:4
60,16:5
60,17:4
60,18:1
60,19:1
60,20:1
60,21:4
60,22:1
60,23:1
60,24:1
60,25:1
60,26:2
60,27:4
60,28:4
60,29:2
60,30:2
60,31:2
60,32:2
60,33:5
60,34:5
60,37:4
60,38:4
60,39:4
60,40:3
60,41:1
60,43:6
60,44:3
60,45:6
60,46:6
60,47:3
60,48:1
60,49:3
60,50:3
60,51:1
60,52:1
60,53:7
60,54:6
60,55:3
60,56:3
60,57:3
60,58:7
60,62:1
60,63:1
60,65:1
60,68:7
60,69:6
60,70:6
60,71:7
60,72:6
60,80:6
61,1:2
61,2:2
61,3:2
61,4:2
61,6:2
61,7:2
61,8:4
61,9:4
61,14:4
61,15:4
61,16:5
61,17:4
61,18:1
61,19:1
61,20:1
61,21:4
61,22:1
61,23:1
61,24:1
61,25:1
61,26:2
61,27:4
61,28:4
61,29:2
61,30:2
61,31:2
61,32:2
61,33:5
61,34:5
61,37:4
61,38:4
61,39:4
61,40:3
61,41:1
61,43:6
61,44:3
61,45:6
61,46:6
61,47:3
61,48:1
61,49:3
61,50:3
61,51:1
61,52:1
61,53:7
61,54:6
61,55:3
61,56:3
61,57:3
61,58:7
61,62:1
61,63:1
61,65:1
61,68:7
61,69:6
61,70:6
61,71:7
61,72:6
61,80:6
62,1:1
62,2:1
62,3:1
62,4:1
62,6:1
62,7:1
62,8:3
62,9:3
62,14:3
62,15:3
62,16:4
62,17:3
62,21:3
62,26:1
62,27:3
62,28:3
62,29:1
62,30:1
62,31:1
62,32:1
62,33:4
62,34:4
62,37:3
62,38:3
62,39:3
62,40:2
62,43:5
62,44:2
62,45:5
62,46:5
62,47:2
62,49:2
62,50:2
62,53:6
62,54:5
62,55:2
62,56:2
62,57:2
62,58:6
62,68:6
62,69:5
62,70:5
62,71:6
62,72:5
62,80:5
63,1:1
63,2:1
63,3:1
63,4:1
63,6:1
63,7:1
63,8:3
63,9:3
63,14:3
63,15:3
63,16:4
63,17:3
63,21:3
63,26:1
63,27:3
63,28:3
63,29:1
63,30:1
63,31:1
63,32:1
63,33:4
63,34:4
63,37:3
63,38:3
63,39:3
63,40:2
63,43:5
63,44:2
63,45:5
63,46:5
63,47:2
63,49:2
63,50:2
63,53:6
63,54:5
63,55:2
63,56:2
63,57:2
63,58:6
63,68:6
63,69:5
63,70:5
63,71:6
63,72:5
63,80:5
64,1:2
64,2:2
64,3:2
64,4:2
64,6:2
64,7:2
64,8:4
64,9:4
64,14:4
64,15:4
64,16:5
64,17:4
64,18:1
64,19:1
64,20:1
64,21:4
64,22:1
64,23:1
64,24:1
64,25:1
64,26:2
64,27:4
64,28:4
64,29:2
64,30:2
64,31:2
64,32:2
64,33:5
64,34:5
64,37:4
64,38:4
64,39:4
64,40:3
64,41:1
64,43:6
64,44:3
64,45:6
64,46:6
64,47:3
64,48:1
64,49:3
64,50:3
64,51:1
64,52:1
64,53:7
64,54:6
64,55:3
64,56:3
64,57:3
64,58:7
64,62:1
64,63:1
64,65:1
64,68:7
64,69:6
64,70:6
64,71:7
64,72:6
64,80:6
65,1:1
65,2:1
65,3:1
65,4:1
65,6:1
65,7:1
65,8:3
65,9:3
65,14:3
65,15:3
65,16:4
65,17:3
65,21:3
65,26:1
65,27:3
65,28:3
65,29:1
65,30:1
65,31:1
65,32:1
65,33:4
65,34:4
65,37:3
65,38:3
65,39:3
65,40:2
65,43:5
65,44:2
65,45:5
65,46:5
65,47:2
65,49:2
65,50:2
65,53:6
65,54:5
65,55:2
65,56:2
65,57:2
65,58:6
65,68:6
65,69:5
65,70:5
65,71:6
65,72:5
65,80:5
66,1:2
66,2:2
66,3:2
66,4:2
66,6:2
66,7:2
66,8:4
66,9:4
66,14:4
66,15:4
66,16:5
66,17:4
66,18:1
66,19:1
66,20:1
66,21:4
66,22:1
66,23:1
66,24:1
66,25:1
66,26:2
66,27:4
66,28:4
66,29:2
66,30:2
66,31:2
66,32:2
66,33:5
66,34:5
66,37:4
66,38:4
66,39:4
66,40:3
66,41:1
66,43:6
66,44:3
66,45:6
66,46:6
66,47:3
66,48:1
66,49:3
66,50:3
66,51:1
66,52:1
66,53:7
66,54:6
66,55:3
66,56:3
66,57:3
66,58:7
66,62:1
66,63:1
66,65:1
66,68:7
66,69:6
66,70:6
66,71:7
66,72:6
66,80:6
69,53:1
69,58:1
69,67:1
69,68:1
69,71:1
70,53:1
70,58:1
70,67:1
70,68:1
70,71:1
72,53:1
72,58:1
72,67:1
72,68:1
72,71:1
73,53:1
73,58:1
73,67:1
73,68:1
73,71:1
74,53:1
74,58:1
74,67:1
74,68:1
74,71:1
75,1:3
75,2:3
75,3:3
75,4:3
75,6:3
75,7:3
75,8:5
75,9:5
75,14:5
75,15:5
75,16:6
75,17:5
75,18:2
75,19:2
75,20:2
75,21:5
75,22:2
75,23:2
75,24:2
75,25:2
75,26:3
75,27:5
75,28:5
75,29:3
75,30:3
75,31:3
75,32:3
75,33:6
75,34:6
75,35:1
75,36:1
75,37:5
75,38:5
75,39:5
75,40:4
75,41:2
75,42:1
75,43:7
75,44:4
75,45:7
75,46:7
75,47:4
75,48:2
75,49:4
75,50:4
75,51:2
75,52:2
75,53:8
75,54:7
75,55:4
75,56:4
75,57:4
75,58:8
75,59:1
75,60:1
75,61:1
75,62:2
75,63:2
75,64:1
75,65:2
75,66:1
75,67:8
75,68:8
75,69:7
75,70:7
75,71:8
75,72:7
75,73:7
75,74:7
75,80:7
76,1:3
76,2:3
76,3:3
76,4:3
76,6:3
76,7:3
76,8:5
76,9:5
76,14:5
76,15:5
76,16:6
76,17:5
76,18:2
76,19:2
76,20:2
76,21:5
76,22:2
76,23:2
76,24:2
76,25:2
76,26:3
76,27:5
76,28:5
76,29:3
76,30:3
76,31:3
76,32:3
76,33:6
76,34:6
76,35:1
76,36:1
76,37:5
76,38:5
76,39:5
76,40:4
76,41:2
76,42:1
76,43:7
76,44:4
76,45:7
76,46:7
76,47:4
76,48:2
76,49:4
76,50:4
76,51:2
76,52:2
76,53:8
76,54:7
76,55:4
76,56:4
76,57:4
76,58:8
76,59:1
76,60:1
76,61:1
76,62:2
76,63:2
76,64:1
76,65:2
76,66:1
76,67:8
76,68:8
76,69:7
76,70:7
76,71:8
76,72:7
76,73:7
76,74:7
76,80:7
77,1:3
77,2:3
77,3:3
77,4:3
77,6:3
77,7:3
77,8:5
77,9:5
77,14:5
77,15:5
77,16:6
77,17:5
77,18:2
77,19:2
77,20:2
77,21:5
77,22:2
77,23:2
77,24:2
77,25:2
77,26:3
77,27:5
77,28:5
77,29:3
77,30:3
77,31:3
77,32:3
77,33:6
77,34:6
77,35:1
77,36:1
77,37:5
77,38:5
77,39:5
77,40:4
77,41:2
77,42:1
77,43:7
77,44:4
77,45:7
77,46:7
77,47:4
77,48:2
77,49:4
77,50:4
77,51:2
77,52:2
77,53:8
77,54:7
77,55:4
77,56:4
77,57:4
77,58:8
77,59:1
77,60:1
77,61:1
77,62:2
77,63:2
77,64:1
77,65:2
77,66:1
77,67:8
77,68:8
77,69:7
77,70:7
77,71:8
77,72:7
77,73:7
77,74:7
77,80:7
78,1:3
78,2:3
78,3:3
78,4:3
78,6:3
78,7:3
78,8:5
78,9:5
78,14:5
78,15:5
78,16:6
78,17:5
78,18:2
78,19:2
78,20:2
78,21:5
78,22:2
78,23:2
78,24:2
78,25:2
78,26:3
78,27:5
78,28:5
78,29:3
78,30:3
78,31:3
78,32:3
78,33:6
78,34:6
78,35:1
78,36:1
78,37:5
78,38:5
78,39:5
78,40:4
78,41:2
78,42:1
78,43:7
78,44:4
78,45:7
78,46:7
78,47:4
78,48:2
78,49:4
78,50:4
78,51:2
78,52:2
78,53:8
78,54:7
78,55:4
78,56:4
78,57:4
78,58:8
78,59:1
78,60:1
78,61:1
78,62:2
78,63:2
78,64:1
78,65:2
78,66:1
78,67:8
78,68:8
78,69:7
78,70:7
78,71:8
78,72:7
78,73:7
78,74:7
78,80:7
79,1:3
79,2:3
79,3:3
79,4:3
79,6:3
79,7:3
79,8:5
79,9:5
79,14:5
79,15:5
79,16:6
79,17:5
79,18:2
79,19:2
79,20:2
79,21:5
79,22:2
79,23:2
79,24:2
79,25:2
79,26:3
79,27:5
79,28:5
79,29:3
79,30:3
79,31:3
79,32:3
79,33:6
79,34:6
79,35:1
79,36:1
79,37:5
79,38:5
79,39:5
79,40:4
79,41:2
79,42:1
79,43:7
79,44:4
79,45:7
79,46:7
79,47:4
79,48:2
79,49:4
79,50:4
79,51:2
79,52:2
79,53:8
79,54:7
79,55:4
79,56:4
79,57:4
79,58:8
79,59:1
79,60:1
79,61:1
79,62:2
79,63:2
79,64:1
79,65:2
79,66:1
79,67:8
79,68:8
79,69:7
79,70:7
79,71:8
79,72:7
79,73:7
79,74:7
79,80:7
80,53:1
80,58:1
80,67:1
80,68:1
80,71:1
81,8:1
81,9:1
81,14:1
81,15:1
81,16:2
81,17:1
81,21:1
81,27:1
81,28:1
81,33:2
81,34:2
81,37:1
81,38:1
81,39:1
81,43:3
81,45:3
81,46:3
81,53:4
81,54:3
81,58:4
81,67:4
81,68:4
81,69:3
81,70:3
81,71:4
81,72:3
81,73:3
81,74:3
81,80:3
82,8:1
82,9:1
82,14:1
82,15:1
82,16:2
82,17:1
82,21:1
82,27:1
82,28:1
82,33:2
82,34:2
82,37:1
82,38:1
82,39:1
82,43:3
82,45:3
82,46:3
82,53:4
82,54:3
82,58:4
82,67:4
82,68:4
82,69:3
82,70:3
82,71:4
82,72:3
82,73:3
82,74:3
82,80:3
83,8:1
83,9:1
83,14:1
83,15:1
83,16:2
83,17:1
83,21:1
83,27:1
83,28:1
83,33:2
83,34:2
83,37:1
83,38:1
83,39:1
83,43:3
83,45:3
83,46:3
83,53:4
83,54:3
83,58:4
83,67:4
83,68:4
83,69:3
83,70:3
83,71:4
83,72:3
83,73:3
83,74:3
83,80:3
84,8:1
84,9:1
84,14:1
84,15:1
84,16:2
84,17:1
84,21:1
84,27:1
84,28:1
84,33:2
84,34:2
84,37:1
84,38:1
84,39:1
84,43:3
84,45:3
84,46:3
84,53:4
84,54:3
84,58:4
84,67:4
84,68:4
84,69:3
84,70:3
84,71:4
84,72:3
84,73:3
84,74:3
84,80:3
85,8:1
85,9:1
85,14:1
85,15:1
85,16:2
85,17:1
85,21:1
85,27:1
85,28:1
85,33:2
85,34:2
85,37:1
85,38:1
85,39:1
85,43:3
85,45:3
85,46:3
85,53:4
85,54:3
85,58:4
85,67:4
85,68:4
85,69:3
85,70:3
85,71:4
85,72:3
85,73:3
85,74:3
85,80:3
86,1:1
86,2:1
86,3:1
86,4:1
86,6:1
86,7:1
86,8:3
86,9:3
86,14:3
86,15:3
86,16:4
86,17:3
86,21:3
86,26:1
86,27:3
86,28:3
86,29:1
86,30:1
86,31:1
86,32:1
86,33:4
86,34:4
86,37:3
86,38:3
86,39:3
86,40:2
86,43:5
86,44:2
86,45:5
86,46:5
86,47:2
86,49:2
86,50:2
86,53:6
86,54:5
86,55:2
86,56:2
86,57:2
86,58:6
86,67:6
86,68:6
86,69:5
86,70:5
86,71:6
86,72:5
86,73:5
86,74:5
86,80:5
86,81:2
86,82:2
86,83:2
86,84:2
86,85:2
87,1:1
87,2:1
87,3:1
87,4:1
87,6:1
87,7:1
87,8:3
87,9:3
87,14:3
87,15:3
87,16:4
87,17:3
87,21:3
87,26:1
87,27:3
87,28:3
87,29:1
87,30:1
87,31:1
87,32:1
87,33:4
87,34:4
87,37:3
87,38:3
87,39:3
87,40:2
87,43:5
87,44:2
87,45:5
87,46:5
87,47:2
87,49:2
87,50:2
87,53:6
87,54:5
87,55:2
87,56:2
87,57:2
87,58:6
87,67:6
87,68:6
87,69:5
87,70:5
87,71:6
87,72:5
87,73:5
87,74:5
87,80:5
87,81:2
87,82:2
87,83:2
87,84:2
87,85:2
88,1:1
88,2:1
88,3:1
88,4:1
88,6:1
88,7:1
88,8:3
88,9:3
88,14:3
88,15:3
88,16:4
88,17:3
88,21:3
88,26:1
88,27:3
88,28:3
88,29:1
88,30:1
88,31:1
88,32:1
88,33:4
88,34:4
88,37:3
88,38:3
88,39:3
88,40:2
88,43:5
88,44:2
88,45:5
88,46:5
88,47:2
88,49:2
88,50:2
88,53:6
88,54:5
88,55:2
88,56:2
88,57:2
88,58:6
88,67:6
88,68:6
88,69:5
88,70:5
88,71:6
88,72:5
88,73:5
88,74:5
88,80:5
88,81:2
88,82:2
88,83:2
88,84:2
88,85:2
89,1:1
89,2:1
89,3:1
89,4:1
89,6:1
89,7:1
89,8:3
89,9:3
89,14:3
89,15:3
89,16:4
89,17:3
89,21:3
89,26:1
89,27:3
89,28:3
89,29:1
89,30:1
89,31:1
89,32:1
89,33:4
89,34:4
89,37:3
89,38:3
89,39:3
89,40:2
89,43:5
89,44:2
89,45:5
89,46:5
89,47:2
89,49:2
89,50:2
89,53:6
89,54:5
89,55:2
89,56:2
89,57:2
89,58:6
89,67:6
89,68:6
89,69:5
89,70:5
89,71:6
89,72:5
89,73:5
89,74:5
89,80:5
89,81:2
89,82:2
89,83:2
89,84:2
89,85:2

<end>

<optimal SALBP-1 value>
19


<rand seed>
467321153

